p wcnf 341 1084
w -2 0.367879 0
w 2 2.718282 0
w -3 0.367879 0
w 3 2.718282 0
w -4 0.367879 0
w 4 2.718282 0
w -5 0.367879 0
w 5 2.718282 0
w -6 0.367879 0
w 6 2.718282 0
w -7 0.367879 0
w 7 2.718282 0
w -8 0.367879 0
w 8 2.718282 0
w -10 0.367879 0
w 10 2.718282 0
w -11 0.367879 0
w 11 2.718282 0
w -12 0.367879 0
w 12 2.718282 0
w -13 0.367879 0
w 13 2.718282 0
w -14 0.367879 0
w 14 2.718282 0
w -15 0.367879 0
w 15 2.718282 0
w -16 0.367879 0
w 16 2.718282 0
w -17 0.367879 0
w 17 2.718282 0
w -18 0.367879 0
w 18 2.718282 0
w -19 0.367879 0
w 19 2.718282 0
w -21 0.367879 0
w 21 2.718282 0
w -22 0.367879 0
w 22 2.718282 0
w -23 0.367879 0
w 23 2.718282 0
w -24 0.367879 0
w 24 2.718282 0
w -25 0.367879 0
w 25 2.718282 0
w -26 0.367879 0
w 26 2.718282 0
w -27 0.367879 0
w 27 2.718282 0
w -28 0.367879 0
w 28 2.718282 0
w -29 0.367879 0
w 29 2.718282 0
w -30 0.367879 0
w 30 2.718282 0
w -31 0.367879 0
w 31 2.718282 0
w -33 0.367879 0
w 33 2.718282 0
w -34 0.367879 0
w 34 2.718282 0
w -35 0.367879 0
w 35 2.718282 0
w -36 0.367879 0
w 36 2.718282 0
w -37 0.367879 0
w 37 2.718282 0
w -38 0.367879 0
w 38 2.718282 0
w -39 0.367879 0
w 39 2.718282 0
w -40 0.367879 0
w 40 2.718282 0
w -41 0.367879 0
w 41 2.718282 0
w -43 0.367879 0
w 43 2.718282 0
w -44 0.367879 0
w 44 2.718282 0
w -45 0.367879 0
w 45 2.718282 0
w -46 0.367879 0
w 46 2.718282 0
w -47 0.367879 0
w 47 2.718282 0
w -48 0.367879 0
w 48 2.718282 0
w -49 0.367879 0
w 49 2.718282 0
w -50 0.367879 0
w 50 2.718282 0
w -51 0.367879 0
w 51 2.718282 0
w -53 0.367879 0
w 53 2.718282 0
w -54 0.367879 0
w 54 2.718282 0
w -55 0.367879 0
w 55 2.718282 0
w -56 0.367879 0
w 56 2.718282 0
w -57 0.367879 0
w 57 2.718282 0
w -58 0.367879 0
w 58 2.718282 0
w -60 0.367879 0
w 60 2.718282 0
w -61 0.367879 0
w 61 2.718282 0
w -62 0.367879 0
w 62 2.718282 0
w -63 0.367879 0
w 63 2.718282 0
w -64 0.367879 0
w 64 2.718282 0
w -65 0.367879 0
w 65 2.718282 0
w -66 0.367879 0
w 66 2.718282 0
w -67 0.367879 0
w 67 2.718282 0
w -69 0.367879 0
w 69 2.718282 0
w -70 0.367879 0
w 70 2.718282 0
w -71 0.367879 0
w 71 2.718282 0
w -72 0.367879 0
w 72 2.718282 0
w -73 0.367879 0
w 73 2.718282 0
w -74 0.367879 0
w 74 2.718282 0
w -75 0.367879 0
w 75 2.718282 0
w -76 0.367879 0
w 76 2.718282 0
w -78 0.367879 0
w 78 2.718282 0
w -79 0.367879 0
w 79 2.718282 0
w -80 0.367879 0
w 80 2.718282 0
w -81 0.367879 0
w 81 2.718282 0
w -82 0.367879 0
w 82 2.718282 0
w -83 0.367879 0
w 83 2.718282 0
w -84 0.367879 0
w 84 2.718282 0
w -85 0.367879 0
w 85 2.718282 0
w -86 0.367879 0
w 86 2.718282 0
w -87 0.367879 0
w 87 2.718282 0
w -88 0.367879 0
w 88 2.718282 0
w -89 0.367879 0
w 89 2.718282 0
w -90 0.367879 0
w 90 2.718282 0
w -91 0.367879 0
w 91 2.718282 0
w -92 0.367879 0
w 92 2.718282 0
w -94 0.367879 0
w 94 2.718282 0
w -95 0.367879 0
w 95 2.718282 0
w -96 0.367879 0
w 96 2.718282 0
w -97 0.367879 0
w 97 2.718282 0
w -99 0.367879 0
w 99 2.718282 0
w -100 0.367879 0
w 100 2.718282 0
w -101 0.367879 0
w 101 2.718282 0
w -102 0.367879 0
w 102 2.718282 0
w -103 0.367879 0
w 103 2.718282 0
w -104 0.367879 0
w 104 2.718282 0
w -106 0.367879 0
w 106 2.718282 0
w -107 0.367879 0
w 107 2.718282 0
w -108 0.367879 0
w 108 2.718282 0
w -109 0.367879 0
w 109 2.718282 0
w -110 0.367879 0
w 110 2.718282 0
w -111 0.367879 0
w 111 2.718282 0
w -112 0.367879 0
w 112 2.718282 0
w -113 0.367879 0
w 113 2.718282 0
w -115 0.367879 0
w 115 2.718282 0
w -116 0.367879 0
w 116 2.718282 0
w -117 0.367879 0
w 117 2.718282 0
w -118 0.367879 0
w 118 2.718282 0
w -119 0.367879 0
w 119 2.718282 0
w -120 0.367879 0
w 120 2.718282 0
w -122 0.367879 0
w 122 2.718282 0
w -123 0.367879 0
w 123 2.718282 0
w -125 0.367879 0
w 125 2.718282 0
w -126 0.367879 0
w 126 2.718282 0
w -127 0.367879 0
w 127 2.718282 0
w -128 0.367879 0
w 128 2.718282 0
w -129 0.367879 0
w 129 2.718282 0
w -130 0.367879 0
w 130 2.718282 0
w -131 0.367879 0
w 131 2.718282 0
w -132 0.367879 0
w 132 2.718282 0
w -133 0.367879 0
w 133 2.718282 0
w -134 0.367879 0
w 134 2.718282 0
w -136 0.367879 0
w 136 2.718282 0
w -137 0.367879 0
w 137 2.718282 0
w -138 0.367879 0
w 138 2.718282 0
w -139 0.367879 0
w 139 2.718282 0
w -140 0.367879 0
w 140 2.718282 0
w -141 0.367879 0
w 141 2.718282 0
w -143 0.367879 0
w 143 2.718282 0
w -144 0.367879 0
w 144 2.718282 0
w -145 0.367879 0
w 145 2.718282 0
w -146 0.367879 0
w 146 2.718282 0
w -147 0.367879 0
w 147 2.718282 0
w -148 0.367879 0
w 148 2.718282 0
w -149 0.367879 0
w 149 2.718282 0
w -151 0.367879 0
w 151 2.718282 0
w -152 0.367879 0
w 152 2.718282 0
w -153 0.367879 0
w 153 2.718282 0
w -154 0.367879 0
w 154 2.718282 0
w -155 0.367879 0
w 155 2.718282 0
w -156 0.367879 0
w 156 2.718282 0
w -157 0.367879 0
w 157 2.718282 0
w -158 0.367879 0
w 158 2.718282 0
w -159 0.367879 0
w 159 2.718282 0
w -160 0.367879 0
w 160 2.718282 0
w -162 0.367879 0
w 162 2.718282 0
w -163 0.367879 0
w 163 2.718282 0
w -164 0.367879 0
w 164 2.718282 0
w -166 0.367879 0
w 166 2.718282 0
w -167 0.367879 0
w 167 2.718282 0
w -168 0.367879 0
w 168 2.718282 0
w -170 0.367879 0
w 170 2.718282 0
w -171 0.367879 0
w 171 2.718282 0
w -172 0.367879 0
w 172 2.718282 0
w -173 0.367879 0
w 173 2.718282 0
w -174 0.367879 0
w 174 2.718282 0
w -176 0.367879 0
w 176 2.718282 0
w -177 0.367879 0
w 177 2.718282 0
w -178 0.367879 0
w 178 2.718282 0
w -180 0.367879 0
w 180 2.718282 0
w -181 0.367879 0
w 181 2.718282 0
w -182 0.367879 0
w 182 2.718282 0
w -183 0.367879 0
w 183 2.718282 0
w -184 0.367879 0
w 184 2.718282 0
w -186 0.367879 0
w 186 2.718282 0
w -187 0.367879 0
w 187 2.718282 0
w -188 0.367879 0
w 188 2.718282 0
w -190 0.367879 0
w 190 2.718282 0
w -191 0.367879 0
w 191 2.718282 0
w -192 0.367879 0
w 192 2.718282 0
w -193 0.367879 0
w 193 2.718282 0
w -194 0.367879 0
w 194 2.718282 0
w -196 0.367879 0
w 196 2.718282 0
w -197 0.367879 0
w 197 2.718282 0
w -198 0.367879 0
w 198 2.718282 0
w -199 0.367879 0
w 199 2.718282 0
w -201 0.367879 0
w 201 2.718282 0
w -202 0.367879 0
w 202 2.718282 0
w -203 0.367879 0
w 203 2.718282 0
w -204 0.367879 0
w 204 2.718282 0
w -205 0.367879 0
w 205 2.718282 0
w -206 0.367879 0
w 206 2.718282 0
w -207 0.367879 0
w 207 2.718282 0
w -208 0.367879 0
w 208 2.718282 0
w -210 0.367879 0
w 210 2.718282 0
w -212 0.367879 0
w 212 2.718282 0
w -213 0.367879 0
w 213 2.718282 0
w -214 0.367879 0
w 214 2.718282 0
w -215 0.367879 0
w 215 2.718282 0
w -217 0.367879 0
w 217 2.718282 0
w -218 0.367879 0
w 218 2.718282 0
w -220 0.367879 0
w 220 2.718282 0
w -222 0.367879 0
w 222 2.718282 0
w -223 0.367879 0
w 223 2.718282 0
w -224 0.367879 0
w 224 2.718282 0
w -225 0.367879 0
w 225 2.718282 0
w -226 0.367879 0
w 226 2.718282 0
w -227 0.367879 0
w 227 2.718282 0
w -229 0.367879 0
w 229 2.718282 0
w -230 0.367879 0
w 230 2.718282 0
w -231 0.367879 0
w 231 2.718282 0
w -232 0.367879 0
w 232 2.718282 0
w -233 0.367879 0
w 233 2.718282 0
w -234 0.367879 0
w 234 2.718282 0
w -236 0.367879 0
w 236 2.718282 0
w -237 0.367879 0
w 237 2.718282 0
w -238 0.367879 0
w 238 2.718282 0
w -240 0.367879 0
w 240 2.718282 0
w -241 0.367879 0
w 241 2.718282 0
w -242 0.367879 0
w 242 2.718282 0
w -243 0.367879 0
w 243 2.718282 0
w -245 0.367879 0
w 245 2.718282 0
w -247 0.367879 0
w 247 2.718282 0
w -248 0.367879 0
w 248 2.718282 0
w -249 0.367879 0
w 249 2.718282 0
w -250 0.367879 0
w 250 2.718282 0
w -252 0.367879 0
w 252 2.718282 0
w -253 0.367879 0
w 253 2.718282 0
w -254 0.367879 0
w 254 2.718282 0
w -255 0.367879 0
w 255 2.718282 0
w -256 0.367879 0
w 256 2.718282 0
w -257 0.367879 0
w 257 2.718282 0
w -259 0.367879 0
w 259 2.718282 0
w -260 0.367879 0
w 260 2.718282 0
w -262 0.367879 0
w 262 2.718282 0
w -263 0.367879 0
w 263 2.718282 0
w -264 0.367879 0
w 264 2.718282 0
w -265 0.367879 0
w 265 2.718282 0
w -266 0.367879 0
w 266 2.718282 0
w -268 0.367879 0
w 268 2.718282 0
w -270 0.367879 0
w 270 2.718282 0
w -271 0.367879 0
w 271 2.718282 0
w -273 0.367879 0
w 273 2.718282 0
w -274 0.367879 0
w 274 2.718282 0
w -275 0.367879 0
w 275 2.718282 0
w -276 0.367879 0
w 276 2.718282 0
w -277 0.367879 0
w 277 2.718282 0
w -279 0.367879 0
w 279 2.718282 0
w -280 0.367879 0
w 280 2.718282 0
w -281 0.367879 0
w 281 2.718282 0
w -283 0.367879 0
w 283 2.718282 0
w -284 0.367879 0
w 284 2.718282 0
w -285 0.367879 0
w 285 2.718282 0
w -286 0.367879 0
w 286 2.718282 0
w -288 0.367879 0
w 288 2.718282 0
w -289 0.367879 0
w 289 2.718282 0
w -290 0.367879 0
w 290 2.718282 0
w -292 0.367879 0
w 292 2.718282 0
w -293 0.367879 0
w 293 2.718282 0
w -295 0.367879 0
w 295 2.718282 0
w -296 0.367879 0
w 296 2.718282 0
w -297 0.367879 0
w 297 2.718282 0
w -298 0.367879 0
w 298 2.718282 0
w -300 0.367879 0
w 300 2.718282 0
w -301 0.367879 0
w 301 2.718282 0
w -303 0.367879 0
w 303 2.718282 0
w -304 0.367879 0
w 304 2.718282 0
w -307 0.367879 0
w 307 2.718282 0
w -308 0.367879 0
w 308 2.718282 0
w -310 0.367879 0
w 310 2.718282 0
w -311 0.367879 0
w 311 2.718282 0
w -312 0.367879 0
w 312 2.718282 0
w -313 0.367879 0
w 313 2.718282 0
w -315 0.367879 0
w 315 2.718282 0
w -319 0.367879 0
w 319 2.718282 0
w -320 0.367879 0
w 320 2.718282 0
w -322 0.367879 0
w 322 2.718282 0
w -324 0.367879 0
w 324 2.718282 0
w -326 0.367879 0
w 326 2.718282 0
w -328 0.367879 0
w 328 2.718282 0
w -330 0.367879 0
w 330 2.718282 0
w -332 0.367879 0
w 332 2.718282 0
w -335 0.367879 0
w 335 2.718282 0
w -337 0.367879 0
w 337 2.718282 0
2 1 98 0
2 -1 -98 0
-2 1 -98 0
-2 -1 98 0
3 1 165 0
3 -1 -165 0
-3 1 -165 0
-3 -1 165 0
4 1 169 0
4 -1 -169 0
-4 1 -169 0
-4 -1 169 0
5 1 185 0
5 -1 -185 0
-5 1 -185 0
-5 -1 185 0
6 1 228 0
6 -1 -228 0
-6 1 -228 0
-6 -1 228 0
7 1 333 0
7 -1 -333 0
-7 1 -333 0
-7 -1 333 0
8 1 341 0
8 -1 -341 0
-8 1 -341 0
-8 -1 341 0
10 9 52 0
10 -9 -52 0
-10 9 -52 0
-10 -9 52 0
11 9 169 0
11 -9 -169 0
-11 9 -169 0
-11 -9 169 0
12 9 258 0
12 -9 -258 0
-12 9 -258 0
-12 -9 258 0
13 9 261 0
13 -9 -261 0
-13 9 -261 0
-13 -9 261 0
14 9 278 0
14 -9 -278 0
-14 9 -278 0
-14 -9 278 0
15 9 287 0
15 -9 -287 0
-15 9 -287 0
-15 -9 287 0
16 9 309 0
16 -9 -309 0
-16 9 -309 0
-16 -9 309 0
17 9 317 0
17 -9 -317 0
-17 9 -317 0
-17 -9 317 0
18 9 323 0
18 -9 -323 0
-18 9 -323 0
-18 -9 323 0
19 9 339 0
19 -9 -339 0
-19 9 -339 0
-19 -9 339 0
21 20 32 0
21 -20 -32 0
-21 20 -32 0
-21 -20 32 0
22 20 42 0
22 -20 -42 0
-22 20 -42 0
-22 -20 42 0
23 20 98 0
23 -20 -98 0
-23 20 -98 0
-23 -20 98 0
24 20 105 0
24 -20 -105 0
-24 20 -105 0
-24 -20 105 0
25 20 185 0
25 -20 -185 0
-25 20 -185 0
-25 -20 185 0
26 20 189 0
26 -20 -189 0
-26 20 -189 0
-26 -20 189 0
27 20 211 0
27 -20 -211 0
-27 20 -211 0
-27 -20 211 0
28 20 291 0
28 -20 -291 0
-28 20 -291 0
-28 -20 291 0
29 20 299 0
29 -20 -299 0
-29 20 -299 0
-29 -20 299 0
30 20 314 0
30 -20 -314 0
-30 20 -314 0
-30 -20 314 0
31 20 323 0
31 -20 -323 0
-31 20 -323 0
-31 -20 323 0
33 32 77 0
33 -32 -77 0
-33 32 -77 0
-33 -32 77 0
34 32 93 0
34 -32 -93 0
-34 32 -93 0
-34 -32 93 0
35 32 165 0
35 -32 -165 0
-35 32 -165 0
-35 -32 165 0
36 32 228 0
36 -32 -228 0
-36 32 -228 0
-36 -32 228 0
37 32 235 0
37 -32 -235 0
-37 32 -235 0
-37 -32 235 0
38 32 282 0
38 -32 -282 0
-38 32 -282 0
-38 -32 282 0
39 32 331 0
39 -32 -331 0
-39 32 -331 0
-39 -32 331 0
40 32 333 0
40 -32 -333 0
-40 32 -333 0
-40 -32 333 0
41 32 339 0
41 -32 -339 0
-41 32 -339 0
-41 -32 339 0
43 42 52 0
43 -42 -52 0
-43 42 -52 0
-43 -42 52 0
44 42 93 0
44 -42 -93 0
-44 42 -93 0
-44 -42 93 0
45 42 169 0
45 -42 -169 0
-45 42 -169 0
-45 -42 169 0
46 42 179 0
46 -42 -179 0
-46 42 -179 0
-46 -42 179 0
47 42 228 0
47 -42 -228 0
-47 42 -228 0
-47 -42 228 0
48 42 235 0
48 -42 -235 0
-48 42 -235 0
-48 -42 235 0
49 42 269 0
49 -42 -269 0
-49 42 -269 0
-49 -42 269 0
50 42 325 0
50 -42 -325 0
-50 42 -325 0
-50 -42 325 0
51 42 334 0
51 -42 -334 0
-51 42 -334 0
-51 -42 334 0
53 52 169 0
53 -52 -169 0
-53 52 -169 0
-53 -52 169 0
54 52 209 0
54 -52 -209 0
-54 52 -209 0
-54 -52 209 0
55 52 267 0
55 -52 -267 0
-55 52 -267 0
-55 -52 267 0
56 52 294 0
56 -52 -294 0
-56 52 -294 0
-56 -52 294 0
57 52 299 0
57 -52 -299 0
-57 52 -299 0
-57 -52 299 0
58 52 323 0
58 -52 -323 0
-58 52 -323 0
-58 -52 323 0
60 59 142 0
60 -59 -142 0
-60 59 -142 0
-60 -59 142 0
61 59 209 0
61 -59 -209 0
-61 59 -209 0
-61 -59 209 0
62 59 239 0
62 -59 -239 0
-62 59 -239 0
-62 -59 239 0
63 59 272 0
63 -59 -272 0
-63 59 -272 0
-63 -59 272 0
64 59 305 0
64 -59 -305 0
-64 59 -305 0
-64 -59 305 0
65 59 314 0
65 -59 -314 0
-65 59 -314 0
-65 -59 314 0
66 59 329 0
66 -59 -329 0
-66 59 -329 0
-66 -59 329 0
67 59 334 0
67 -59 -334 0
-67 59 -334 0
-67 -59 334 0
69 68 142 0
69 -68 -142 0
-69 68 -142 0
-69 -68 142 0
70 68 179 0
70 -68 -179 0
-70 68 -179 0
-70 -68 179 0
71 68 185 0
71 -68 -185 0
-71 68 -185 0
-71 -68 185 0
72 68 216 0
72 -68 -216 0
-72 68 -216 0
-72 -68 216 0
73 68 282 0
73 -68 -282 0
-73 68 -282 0
-73 -68 282 0
74 68 291 0
74 -68 -291 0
-74 68 -291 0
-74 -68 291 0
75 68 305 0
75 -68 -305 0
-75 68 -305 0
-75 -68 305 0
76 68 340 0
76 -68 -340 0
-76 68 -340 0
-76 -68 340 0
78 77 93 0
78 -77 -93 0
-78 77 -93 0
-78 -77 93 0
79 77 105 0
79 -77 -105 0
-79 77 -105 0
-79 -77 105 0
80 77 114 0
80 -77 -114 0
-80 77 -114 0
-80 -77 114 0
81 77 165 0
81 -77 -165 0
-81 77 -165 0
-81 -77 165 0
82 77 185 0
82 -77 -185 0
-82 77 -185 0
-82 -77 185 0
83 77 200 0
83 -77 -200 0
-83 77 -200 0
-83 -77 200 0
84 77 221 0
84 -77 -221 0
-84 77 -221 0
-84 -77 221 0
85 77 246 0
85 -77 -246 0
-85 77 -246 0
-85 -77 246 0
86 77 291 0
86 -77 -291 0
-86 77 -291 0
-86 -77 291 0
87 77 294 0
87 -77 -294 0
-87 77 -294 0
-87 -77 294 0
88 77 305 0
88 -77 -305 0
-88 77 -305 0
-88 -77 305 0
89 77 316 0
89 -77 -316 0
-89 77 -316 0
-89 -77 316 0
90 77 318 0
90 -77 -318 0
-90 77 -318 0
-90 -77 318 0
91 77 325 0
91 -77 -325 0
-91 77 -325 0
-91 -77 325 0
92 77 333 0
92 -77 -333 0
-92 77 -333 0
-92 -77 333 0
94 93 150 0
94 -93 -150 0
-94 93 -150 0
-94 -93 150 0
95 93 221 0
95 -93 -221 0
-95 93 -221 0
-95 -93 221 0
96 93 258 0
96 -93 -258 0
-96 93 -258 0
-96 -93 258 0
97 93 341 0
97 -93 -341 0
-97 93 -341 0
-97 -93 341 0
99 98 142 0
99 -98 -142 0
-99 98 -142 0
-99 -98 142 0
100 98 185 0
100 -98 -185 0
-100 98 -185 0
-100 -98 185 0
101 98 261 0
101 -98 -261 0
-101 98 -261 0
-101 -98 261 0
102 98 316 0
102 -98 -316 0
-102 98 -316 0
-102 -98 316 0
103 98 333 0
103 -98 -333 0
-103 98 -333 0
-103 -98 333 0
104 98 341 0
104 -98 -341 0
-104 98 -341 0
-104 -98 341 0
106 105 179 0
106 -105 -179 0
-106 105 -179 0
-106 -105 179 0
107 105 211 0
107 -105 -211 0
-107 105 -211 0
-107 -105 211 0
108 105 269 0
108 -105 -269 0
-108 105 -269 0
-108 -105 269 0
109 105 305 0
109 -105 -305 0
-109 105 -305 0
-109 -105 305 0
110 105 316 0
110 -105 -316 0
-110 105 -316 0
-110 -105 316 0
111 105 325 0
111 -105 -325 0
-111 105 -325 0
-111 -105 325 0
112 105 327 0
112 -105 -327 0
-112 105 -327 0
-112 -105 327 0
113 105 341 0
113 -105 -341 0
-113 105 -341 0
-113 -105 341 0
115 114 185 0
115 -114 -185 0
-115 114 -185 0
-115 -114 185 0
116 114 291 0
116 -114 -291 0
-116 114 -291 0
-116 -114 291 0
117 114 294 0
117 -114 -294 0
-117 114 -294 0
-117 -114 294 0
118 114 316 0
118 -114 -316 0
-118 114 -316 0
-118 -114 316 0
119 114 321 0
119 -114 -321 0
-119 114 -321 0
-119 -114 321 0
120 114 329 0
120 -114 -329 0
-120 114 -329 0
-120 -114 329 0
122 121 209 0
122 -121 -209 0
-122 121 -209 0
-122 -121 209 0
123 121 246 0
123 -121 -246 0
-123 121 -246 0
-123 -121 246 0
125 124 150 0
125 -124 -150 0
-125 124 -150 0
-125 -124 150 0
126 124 161 0
126 -124 -161 0
-126 124 -161 0
-126 -124 161 0
127 124 169 0
127 -124 -169 0
-127 124 -169 0
-127 -124 169 0
128 124 185 0
128 -124 -185 0
-128 124 -185 0
-128 -124 185 0
129 124 200 0
129 -124 -200 0
-129 124 -200 0
-129 -124 200 0
130 124 209 0
130 -124 -209 0
-130 124 -209 0
-130 -124 209 0
131 124 228 0
131 -124 -228 0
-131 124 -228 0
-131 -124 228 0
132 124 261 0
132 -124 -261 0
-132 124 -261 0
-132 -124 261 0
133 124 309 0
133 -124 -309 0
-133 124 -309 0
-133 -124 309 0
134 124 321 0
134 -124 -321 0
-134 124 -321 0
-134 -124 321 0
136 135 228 0
136 -135 -228 0
-136 135 -228 0
-136 -135 228 0
137 135 244 0
137 -135 -244 0
-137 135 -244 0
-137 -135 244 0
138 135 294 0
138 -135 -294 0
-138 135 -294 0
-138 -135 294 0
139 135 299 0
139 -135 -299 0
-139 135 -299 0
-139 -135 299 0
140 135 316 0
140 -135 -316 0
-140 135 -316 0
-140 -135 316 0
141 135 323 0
141 -135 -323 0
-141 135 -323 0
-141 -135 323 0
143 142 150 0
143 -142 -150 0
-143 142 -150 0
-143 -142 150 0
144 142 179 0
144 -142 -179 0
-144 142 -179 0
-144 -142 179 0
145 142 251 0
145 -142 -251 0
-145 142 -251 0
-145 -142 251 0
146 142 294 0
146 -142 -294 0
-146 142 -294 0
-146 -142 294 0
147 142 306 0
147 -142 -306 0
-147 142 -306 0
-147 -142 306 0
148 142 327 0
148 -142 -327 0
-148 142 -327 0
-148 -142 327 0
149 142 334 0
149 -142 -334 0
-149 142 -334 0
-149 -142 334 0
151 150 200 0
151 -150 -200 0
-151 150 -200 0
-151 -150 200 0
152 150 261 0
152 -150 -261 0
-152 150 -261 0
-152 -150 261 0
153 150 272 0
153 -150 -272 0
-153 150 -272 0
-153 -150 272 0
154 150 294 0
154 -150 -294 0
-154 150 -294 0
-154 -150 294 0
155 150 302 0
155 -150 -302 0
-155 150 -302 0
-155 -150 302 0
156 150 309 0
156 -150 -309 0
-156 150 -309 0
-156 -150 309 0
157 150 314 0
157 -150 -314 0
-157 150 -314 0
-157 -150 314 0
158 150 316 0
158 -150 -316 0
-158 150 -316 0
-158 -150 316 0
159 150 317 0
159 -150 -317 0
-159 150 -317 0
-159 -150 317 0
160 150 323 0
160 -150 -323 0
-160 150 -323 0
-160 -150 323 0
162 161 246 0
162 -161 -246 0
-162 161 -246 0
-162 -161 246 0
163 161 287 0
163 -161 -287 0
-163 161 -287 0
-163 -161 287 0
164 161 299 0
164 -161 -299 0
-164 161 -299 0
-164 -161 299 0
166 165 221 0
166 -165 -221 0
-166 165 -221 0
-166 -165 221 0
167 165 294 0
167 -165 -294 0
-167 165 -294 0
-167 -165 294 0
168 165 336 0
168 -165 -336 0
-168 165 -336 0
-168 -165 336 0
170 169 216 0
170 -169 -216 0
-170 169 -216 0
-170 -169 216 0
171 169 278 0
171 -169 -278 0
-171 169 -278 0
-171 -169 278 0
172 169 287 0
172 -169 -287 0
-172 169 -287 0
-172 -169 287 0
173 169 291 0
173 -169 -291 0
-173 169 -291 0
-173 -169 291 0
174 169 305 0
174 -169 -305 0
-174 169 -305 0
-174 -169 305 0
176 175 200 0
176 -175 -200 0
-176 175 -200 0
-176 -175 200 0
177 175 251 0
177 -175 -251 0
-177 175 -251 0
-177 -175 251 0
178 175 318 0
178 -175 -318 0
-178 175 -318 0
-178 -175 318 0
180 179 221 0
180 -179 -221 0
-180 179 -221 0
-180 -179 221 0
181 179 228 0
181 -179 -228 0
-181 179 -228 0
-181 -179 228 0
182 179 244 0
182 -179 -244 0
-182 179 -244 0
-182 -179 244 0
183 179 317 0
183 -179 -317 0
-183 179 -317 0
-183 -179 317 0
184 179 327 0
184 -179 -327 0
-184 179 -327 0
-184 -179 327 0
186 185 244 0
186 -185 -244 0
-186 185 -244 0
-186 -185 244 0
187 185 287 0
187 -185 -287 0
-187 185 -287 0
-187 -185 287 0
188 185 299 0
188 -185 -299 0
-188 185 -299 0
-188 -185 299 0
190 189 235 0
190 -189 -235 0
-190 189 -235 0
-190 -189 235 0
191 189 261 0
191 -189 -261 0
-191 189 -261 0
-191 -189 261 0
192 189 299 0
192 -189 -299 0
-192 189 -299 0
-192 -189 299 0
193 189 316 0
193 -189 -316 0
-193 189 -316 0
-193 -189 316 0
194 189 318 0
194 -189 -318 0
-194 189 -318 0
-194 -189 318 0
196 195 221 0
196 -195 -221 0
-196 195 -221 0
-196 -195 221 0
197 195 239 0
197 -195 -239 0
-197 195 -239 0
-197 -195 239 0
198 195 317 0
198 -195 -317 0
-198 195 -317 0
-198 -195 317 0
199 195 331 0
199 -195 -331 0
-199 195 -331 0
-199 -195 331 0
201 200 209 0
201 -200 -209 0
-201 200 -209 0
-201 -200 209 0
202 200 228 0
202 -200 -228 0
-202 200 -228 0
-202 -200 228 0
203 200 246 0
203 -200 -246 0
-203 200 -246 0
-203 -200 246 0
204 200 267 0
204 -200 -267 0
-204 200 -267 0
-204 -200 267 0
205 200 287 0
205 -200 -287 0
-205 200 -287 0
-205 -200 287 0
206 200 316 0
206 -200 -316 0
-206 200 -316 0
-206 -200 316 0
207 200 317 0
207 -200 -317 0
-207 200 -317 0
-207 -200 317 0
208 200 340 0
208 -200 -340 0
-208 200 -340 0
-208 -200 340 0
210 209 323 0
210 -209 -323 0
-210 209 -323 0
-210 -209 323 0
212 211 221 0
212 -211 -221 0
-212 211 -221 0
-212 -211 221 0
213 211 318 0
213 -211 -318 0
-213 211 -318 0
-213 -211 318 0
214 211 329 0
214 -211 -329 0
-214 211 -329 0
-214 -211 329 0
215 211 340 0
215 -211 -340 0
-215 211 -340 0
-215 -211 340 0
217 216 267 0
217 -216 -267 0
-217 216 -267 0
-217 -216 267 0
218 216 269 0
218 -216 -269 0
-218 216 -269 0
-218 -216 269 0
220 219 244 0
220 -219 -244 0
-220 219 -244 0
-220 -219 244 0
222 221 228 0
222 -221 -228 0
-222 221 -228 0
-222 -221 228 0
223 221 246 0
223 -221 -246 0
-223 221 -246 0
-223 -221 246 0
224 221 251 0
224 -221 -251 0
-224 221 -251 0
-224 -221 251 0
225 221 287 0
225 -221 -287 0
-225 221 -287 0
-225 -221 287 0
226 221 294 0
226 -221 -294 0
-226 221 -294 0
-226 -221 294 0
227 221 305 0
227 -221 -305 0
-227 221 -305 0
-227 -221 305 0
229 228 239 0
229 -228 -239 0
-229 228 -239 0
-229 -228 239 0
230 228 244 0
230 -228 -244 0
-230 228 -244 0
-230 -228 244 0
231 228 321 0
231 -228 -321 0
-231 228 -321 0
-231 -228 321 0
232 228 323 0
232 -228 -323 0
-232 228 -323 0
-232 -228 323 0
233 228 333 0
233 -228 -333 0
-233 228 -333 0
-233 -228 333 0
234 228 341 0
234 -228 -341 0
-234 228 -341 0
-234 -228 341 0
236 235 329 0
236 -235 -329 0
-236 235 -329 0
-236 -235 329 0
237 235 333 0
237 -235 -333 0
-237 235 -333 0
-237 -235 333 0
238 235 339 0
238 -235 -339 0
-238 235 -339 0
-238 -235 339 0
240 239 258 0
240 -239 -258 0
-240 239 -258 0
-240 -239 258 0
241 239 261 0
241 -239 -261 0
-241 239 -261 0
-241 -239 261 0
242 239 309 0
242 -239 -309 0
-242 239 -309 0
-242 -239 309 0
243 239 333 0
243 -239 -333 0
-243 239 -333 0
-243 -239 333 0
245 244 334 0
245 -244 -334 0
-245 244 -334 0
-245 -244 334 0
247 246 267 0
247 -246 -267 0
-247 246 -267 0
-247 -246 267 0
248 246 278 0
248 -246 -278 0
-248 246 -278 0
-248 -246 278 0
249 246 314 0
249 -246 -314 0
-249 246 -314 0
-249 -246 314 0
250 246 340 0
250 -246 -340 0
-250 246 -340 0
-250 -246 340 0
252 251 282 0
252 -251 -282 0
-252 251 -282 0
-252 -251 282 0
253 251 316 0
253 -251 -316 0
-253 251 -316 0
-253 -251 316 0
254 251 317 0
254 -251 -317 0
-254 251 -317 0
-254 -251 317 0
255 251 321 0
255 -251 -321 0
-255 251 -321 0
-255 -251 321 0
256 251 334 0
256 -251 -334 0
-256 251 -334 0
-256 -251 334 0
257 251 341 0
257 -251 -341 0
-257 251 -341 0
-257 -251 341 0
259 258 309 0
259 -258 -309 0
-259 258 -309 0
-259 -258 309 0
260 258 327 0
260 -258 -327 0
-260 258 -327 0
-260 -258 327 0
262 261 291 0
262 -261 -291 0
-262 261 -291 0
-262 -261 291 0
263 261 309 0
263 -261 -309 0
-263 261 -309 0
-263 -261 309 0
264 261 323 0
264 -261 -323 0
-264 261 -323 0
-264 -261 323 0
265 261 327 0
265 -261 -327 0
-265 261 -327 0
-265 -261 327 0
266 261 340 0
266 -261 -340 0
-266 261 -340 0
-266 -261 340 0
268 267 305 0
268 -267 -305 0
-268 267 -305 0
-268 -267 305 0
270 269 321 0
270 -269 -321 0
-270 269 -321 0
-270 -269 321 0
271 269 334 0
271 -269 -334 0
-271 269 -334 0
-271 -269 334 0
273 272 291 0
273 -272 -291 0
-273 272 -291 0
-273 -272 291 0
274 272 299 0
274 -272 -299 0
-274 272 -299 0
-274 -272 299 0
275 272 305 0
275 -272 -305 0
-275 272 -305 0
-275 -272 305 0
276 272 316 0
276 -272 -316 0
-276 272 -316 0
-276 -272 316 0
277 272 339 0
277 -272 -339 0
-277 272 -339 0
-277 -272 339 0
279 278 282 0
279 -278 -282 0
-279 278 -282 0
-279 -278 282 0
280 278 309 0
280 -278 -309 0
-280 278 -309 0
-280 -278 309 0
281 278 338 0
281 -278 -338 0
-281 278 -338 0
-281 -278 338 0
283 282 287 0
283 -282 -287 0
-283 282 -287 0
-283 -282 287 0
284 282 327 0
284 -282 -327 0
-284 282 -327 0
-284 -282 327 0
285 282 329 0
285 -282 -329 0
-285 282 -329 0
-285 -282 329 0
286 282 338 0
286 -282 -338 0
-286 282 -338 0
-286 -282 338 0
288 287 299 0
288 -287 -299 0
-288 287 -299 0
-288 -287 299 0
289 287 316 0
289 -287 -316 0
-289 287 -316 0
-289 -287 316 0
290 287 323 0
290 -287 -323 0
-290 287 -323 0
-290 -287 323 0
292 291 321 0
292 -291 -321 0
-292 291 -321 0
-292 -291 321 0
293 291 325 0
293 -291 -325 0
-293 291 -325 0
-293 -291 325 0
295 294 299 0
295 -294 -299 0
-295 294 -299 0
-295 -294 299 0
296 294 321 0
296 -294 -321 0
-296 294 -321 0
-296 -294 321 0
297 294 323 0
297 -294 -323 0
-297 294 -323 0
-297 -294 323 0
298 294 340 0
298 -294 -340 0
-298 294 -340 0
-298 -294 340 0
300 299 334 0
300 -299 -334 0
-300 299 -334 0
-300 -299 334 0
301 299 340 0
301 -299 -340 0
-301 299 -340 0
-301 -299 340 0
303 302 317 0
303 -302 -317 0
-303 302 -317 0
-303 -302 317 0
304 302 329 0
304 -302 -329 0
-304 302 -329 0
-304 -302 329 0
307 306 309 0
307 -306 -309 0
-307 306 -309 0
-307 -306 309 0
308 306 338 0
308 -306 -338 0
-308 306 -338 0
-308 -306 338 0
310 309 314 0
310 -309 -314 0
-310 309 -314 0
-310 -309 314 0
311 309 323 0
311 -309 -323 0
-311 309 -323 0
-311 -309 323 0
312 309 329 0
312 -309 -329 0
-312 309 -329 0
-312 -309 329 0
313 309 333 0
313 -309 -333 0
-313 309 -333 0
-313 -309 333 0
315 314 327 0
315 -314 -327 0
-315 314 -327 0
-315 -314 327 0
319 318 327 0
319 -318 -327 0
-319 318 -327 0
-319 -318 327 0
320 318 339 0
320 -318 -339 0
-320 318 -339 0
-320 -318 339 0
322 321 340 0
322 -321 -340 0
-322 321 -340 0
-322 -321 340 0
324 323 334 0
324 -323 -334 0
-324 323 -334 0
-324 -323 334 0
326 325 341 0
326 -325 -341 0
-326 325 -341 0
-326 -325 341 0
328 327 336 0
328 -327 -336 0
-328 327 -336 0
-328 -327 336 0
330 329 331 0
330 -329 -331 0
-330 329 -331 0
-330 -329 331 0
332 331 334 0
332 -331 -334 0
-332 331 -334 0
-332 -331 334 0
335 334 341 0
335 -334 -341 0
-335 334 -341 0
-335 -334 341 0
337 336 340 0
337 -336 -340 0
-337 336 -340 0
-337 -336 340 0
